&CONTROL
    title = 'perovskite', 
    calculation = 'relax',
    restart_mode = 'from_scratch',
    verbosity = 'medium',
    prefix = 'CsSnI3',
    wf_collect = .false.,
    outdir = './',
    pseudo_dir = './',
    tprnfor = .true.,
    tstress = .true.,
    forc_conv_thr=1.d-2,
    dt=60.D0,
    max_seconds = 42500,
/


 &SYSTEM
nat = 20
ntyp = 3
    ibrav = 0,
    nat = 20,
    ntyp = 3,
    ecutwfc= 80,
    ecutrho= 400,
    noncolin=.true.,
    lspinorb=.true.,
    nbnd=200,
    occupations='smearing',
    smearing='marzari-vanderbilt',
    degauss=0.02,
/

 &ELECTRONS
    conv_thr = 1.0d-6,
    diagonalization = 'david',
    mixing_beta = 0.5,
/
 &IONS
    ion_dynamics = 'bfgs',
/

 &CELL
    cell_dynamics = 'bfgs',
/
ATOMIC_SPECIES
   Sn 118.7  Sn.rel-pbe-dn-rrkjus_psl.1.0.0.UPF
   I  126.9  I.rel-pbe-n-rrkjus_psl.1.0.0.UPF 
   Cs 132.9  Cs.rel-pbe-spn-rrkjus_psl.1.0.0.UPF

CELL_PARAMETERS bohr
 24.3131   0.0000   0.0000
  0.0000  23.8124   0.0000
  0.0000   0.0000  23.9541
ATOMIC_POSITIONS {crystal} 
  Cs       0.377162     0.543160     0.741864
  Cs       0.122838     0.043160     0.258136
  Cs       0.622838     0.543160     0.741864
  Cs       0.877162     0.043160     0.258136
  Sn       0.000000     0.345497     0.574910
  Sn       0.500000     0.845497     0.425090
  Sn       0.000000     0.718416     0.881687
  Sn       0.500000     0.218416     0.118313
   I       0.049257     0.663232     0.064177
   I       0.450743     0.163232     0.935823
   I       0.950743     0.663232     0.064177
   I       0.549257     0.163232     0.935823
   I       0.111055     0.338864     0.025094
   I       0.388945     0.838864     0.974906
   I       0.888945     0.338864     0.025094
   I       0.611055     0.838864     0.974906
   I       0.646506     0.136976     0.372058
   I       0.853494     0.636976     0.627942
   I       0.353494     0.136976     0.372058
   I       0.146506     0.636976     0.627942
K_POINTS {automatic} 
   2    2    2  0 0 0
