&DOS
   prefix = 'CsSnI3'
   fildos = 'dos.out'
   Emin = -15
   DeltaE = 0.1
/ 
