&CONTROL
    title = 'perovskite', 
    calculation = 'vc-relax',
    restart_mode = 'from_scratch',
    verbosity = 'medium',
    prefix = 'CsSnI3',
    wf_collect = .false.,
    outdir = './',
    pseudo_dir = './',
    tprnfor = .true.,
    tstress = .true.,
    forc_conv_thr=1.d-4,
    max_seconds = 42500,
/



 &SYSTEM
nat = 20
ntyp = 3
    ibrav = 0,
    nat = 20, 
    ntyp = 3,
    ecutwfc= 80,
    ecutrho= 320,
    noncolin=.true.,
    lspinorb=.true.,
/
 &ELECTRONS
    conv_thr = 1.0d-7,
    diagonalization = 'david',
    mixing_beta = 0.6,
/
 &IONS
    ion_dynamics = 'bfgs',
/

 &CELL
    cell_dynamics = 'bfgs',
/
ATOMIC_SPECIES
   Sn 118.7  Sn.rel-pbe-dn-rrkjus_psl.1.0.0.UPF
   I  126.9  I.rel-pbe-n-rrkjus_psl.0.2.2.UPF 
   Cs 132.9  Cs.rel-pbe-spn-rrkjus_psl.1.0.0.UPF

CELL_PARAMETERS bohr
 17.4003   0.0000   0.0000
 -8.7001  15.0691   0.0000
  0.0000   0.0000  24.8777
ATOMIC_POSITIONS {crystal} 
  Cs       0.000000     0.000000     0.906333
  Cs       0.000000     0.000000     0.406333
  Cs       0.000000     0.000000     0.093667
  Cs       0.000000     0.000000     0.593667
  Sn       0.000000     0.000000     0.000000
  Sn       0.000000     0.000000     0.500000
  Sn       0.333333     0.666667     0.250000
  Sn       0.666667     0.333333     0.750000
   I       0.192646     0.385293     0.444770
   I       0.807354     0.192646     0.944770
   I       0.614707     0.807354     0.444770
   I       0.807354     0.614707     0.944770
   I       0.192646     0.807354     0.444770
   I       0.385293     0.192646     0.944770
   I       0.807354     0.614707     0.555230
   I       0.192646     0.807354     0.055230
   I       0.385293     0.192646     0.555230
   I       0.192646     0.385293     0.055230
   I       0.807354     0.192646     0.555230
   I       0.614707     0.807354     0.055230
K_POINTS {automatic} 
   4    4    2  0 0 0
