&CONTROL
    title = 'SnI4un', 
    calculation = 'vc-relax',
    restart_mode = 'from_scratch',
    verbosity = 'medium',
    prefix = 'SnI4un',
    wf_collect = .true.,
    outdir = './out',
    wfcdir = './out',
    pseudo_dir = '../../../pseudo/',
    tprnfor = .true.,
    tstress = .true.,
    max_seconds = 42500,
    forc_conv_thr=1.d-4,
/
 &SYSTEM
    ibrav = 0,
    nat = 5, 
    ntyp = 2,
    ecutwfc= 70,
    ecutrho=280,

/
 &ELECTRONS
    conv_thr = 1.0d-6,
    diagonalization = 'david',
    mixing_beta = 0.5,
/
 &IONS
    ion_dynamics = 'bfgs',
/

 &CELL
    cell_dynamics = 'bfgs',
/
 CELL_PARAMETERS {angstrom}
6.686428 0.000000 0.000000
0.000000 6.686428 0.000000
0.000000 0.000000 6.686428

 ATOMIC_SPECIES
   Sn 118.7  Sn.pbe-dn-kjpaw_psl.1.0.0.UPF
   I  126.9  I.pbe-n-kjpaw_psl.1.0.0.UPF

 ATOMIC_POSITIONS {crystal}
Sn 0.000000 0.000000 0.000000 
I 0.233903 0.766097 0.766097 
I 0.766097 0.233903 0.766097 
I 0.766097 0.766097 0.233903 
I 0.233903 0.233903 0.233903 

K_POINTS {automatic}
2 2 2 0 0 0
