&CONTROL
    title = 'CsSnI3', 
    calculation = 'scf',
    restart_mode = 'from_scratch',
    verbosity = 'medium',
    prefix = 'CsSnI3',
    wf_collect = .true.,
    outdir = './',
    wfcdir = './',
    pseudo_dir = '/marconi_scratch/userexternal/cmalosso/degironcoli/pseudo/pseudo-usp',
    tprnfor = .true.,
    tstress = .true.,
    forc_conv_thr=1.d-4,
/
 &SYSTEM
    ibrav = 8,
    A = 4.832290, 
    B = 10.765026, 
    C = 18.147277,
    nat = 20, 
    ntyp = 3,
    ecutwfc= 80,
    ecutrho= 480.0
    noncolin=.true.,
    lspinorb=.true.,
/
 &ELECTRONS
    conv_thr = 1.0d-6,
    diagonalization = 'david',
    mixing_beta = 0.35,
/

ATOMIC_SPECIES
   Cs 132.9  Cs.rel-pbesol-spn-rrkjus_psl.1.0.0.UPF
   Sn 118.7  Sn.rel-pbesol-dn-rrkjus_psl.1.0.0.UPF
   I  126.9  I.rel-pbesol-n-rrkjus_psl.1.0.0.UPF 

ATOMIC_POSITIONS {crystal}
Cs 0.250000 0.083477 0.670182
Cs 0.750000 0.916523 0.329818 
Cs 0.250000 0.583477 0.829818
Cs 0.750000 0.416523 0.170182
Sn 0.250000 0.341860 0.438978
Sn 0.750000 0.658140 0.561022
Sn 0.250000 0.841860 0.061022
Sn 0.750000 0.158140 0.938978 
I 0.750000 0.026100 0.111907 
I 0.250000 0.973900 0.888093 
I 0.750000 0.526100 0.388093 
I 0.250000 0.473900 0.611907 
I 0.750000 0.293174 0.791874 
I 0.250000 0.706826 0.208126 
I 0.750000 0.793174 0.708126 
I 0.250000 0.206826 0.291874 
I 0.750000 0.168496 0.498874 
I 0.250000 0.831504 0.501126 
I 0.750000 0.668496 0.001126 
I 0.250000 0.331504 0.998874 

K_POINTS {automatic}
2 2 2 1 1 1
