&DOS
   prefix = 'CsIfcc'
   fildos = 'dos.out'
   DeltaE = 0.02
/ 
