&DOS
   prefix = 'CsIhex'
   fildos = 'dos.out'
   DeltaE = 0.02
/ 
