&DOS
   prefix = 'CsIsalt'
   fildos = 'dos.out'
   DeltaE = 0.02
/ 
