&CONTROL
    title = 'CsIsalt', 
    calculation = 'scf',
    restart_mode = 'from_scratch',
    verbosity = 'high',
    prefix = 'CsIsalt',
    wf_collect = .true.,
    outdir = './',
    wfcdir = './',
    pseudo_dir = '/marconi_scratch/userexternal/cmalosso/degironcoli/pseudo',
    tprnfor = .true.,
    tstress = .true.,
    max_seconds = 42500,
    forc_conv_thr=1.d-4,
/
 &SYSTEM
    ibrav = 1,
    A = 4.665212, 
    nat = 8, 
    ntyp = 2,
    ecutwfc= 80,
    ecutrho= 480
    lspinorb=.true.
    noncolin = .true.
/
 &ELECTRONS
    conv_thr = 1.0d-6,
    diagonalization = 'david',
    mixing_beta = 0.35,
/

ATOMIC_SPECIES
   Cs 132.9  Cs.rel-pbesol-spn-kjpaw_psl.1.0.0.UPF  
   I  126.9  I.rel-pbesol-n-kjpaw_psl.1.0.0.UPF


ATOMIC_POSITIONS {crystal}
Cs 0.000000 0.000000 0.000000 
Cs 0.000000 0.500000 0.500000 
Cs 0.500000 0.000000 0.500000 
Cs 0.500000 0.500000 0.000000 
I 0.500000 0.000000 0.000000 
I 0.500000 0.500000 0.500000 
I 0.000000 0.000000 0.500000 
I 0.000000 0.500000 0.000000 

K_POINTS {automatic}
8 8 8 1 1 1
