&CONTROL
    title = 'perovskite', 
    calculation = 'relax',
    restart_mode = 'from_scratch',
    verbosity = 'medium',
    prefix = 'CsSnI3',
    wf_collect = .false.,
    outdir = './',
    pseudo_dir = './',
    tprnfor = .true.,
    tstress = .true.,
    forc_conv_thr=1.d-2,
    dt=60.D0,
    max_seconds = 42500,
/


 &SYSTEM
nat = 20
ntyp = 3
    ibrav = 0,
    nat = 20,
    ntyp = 3,
    ecutwfc= 80,
    ecutrho= 400,
    noncolin=.true.,
    lspinorb=.true.,
    nbnd=200,
    occupations='smearing',
    smearing='marzari-vanderbilt',
    degauss=0.02,
/

 &ELECTRONS
    conv_thr = 1.0d-6,
    diagonalization = 'david',
    mixing_beta = 0.5,
/
 &IONS
    ion_dynamics = 'bfgs',
/

 &CELL
    cell_dynamics = 'bfgs',
/
ATOMIC_SPECIES
   Sn 118.7  Sn.rel-pbe-dn-rrkjus_psl.1.0.0.UPF
   I  126.9  I.rel-pbe-n-rrkjus_psl.1.0.0.UPF 
   Cs 132.9  Cs.rel-pbe-spn-rrkjus_psl.1.0.0.UPF

CELL_PARAMETERS bohr
 24.1452   0.0000   0.0000
  0.0000  24.1452   0.0000
  0.0000   0.0000  23.7882
ATOMIC_POSITIONS {crystal} 
  Cs       0.500000     1.000000     0.196902
  Cs       0.000000     0.500000     0.696902
  Cs       0.000000     0.500000     0.196902
  Cs       0.500000     0.000000     0.696902
  Sn       0.000000     0.500000     0.357104
  Sn       0.500000     0.000000     0.857104
  Sn       0.500000     1.000000     0.357104
  Sn       0.000000     0.500000     0.857104
   I       0.132865     0.160051     0.629421
   I       0.632865     0.660051     0.129421
   I       0.367135     0.339949     0.129421
   I       0.867135     0.839949     0.629421
   I       0.339949     0.632865     0.129421
   I       0.839949     0.132865     0.629421
   I       0.160051     0.867135     0.629421
   I       0.660051     0.367135     0.129421
   I       0.000000     1.000000     0.328767
   I       0.500000     0.500000     0.828767
   I       0.000000     1.000000     0.095027
   I       0.500000     0.500000     0.595027
K_POINTS {automatic} 
   2    2    2  0 0 0
