&CONTROL
    title = 'perovskite', 
    calculation = 'vc-relax',
    restart_mode = 'from_scratch',
    verbosity = 'medium',
    prefix = 'CsSnI3',
    wf_collect = .false.,
    outdir = './',
    pseudo_dir = './',
    tprnfor = .true.,
    tstress = .true.,
    forc_conv_thr=1.d-4,
    max_seconds = 42500,
/



 &SYSTEM
nat = 20
ntyp = 3
    ibrav = 0,
    nat = 20, 
    ntyp = 3,
    ecutwfc= 80,
    ecutrho= 320,
    noncolin=.true.,
    lspinorb=.true.,
/
 &ELECTRONS
    conv_thr = 1.0d-7,
    diagonalization = 'david',
    mixing_beta = 0.6,
/
 &IONS
    ion_dynamics = 'bfgs',
/

 &CELL
    cell_dynamics = 'bfgs',
/
ATOMIC_SPECIES
   Sn 118.7  Sn.rel-pbe-dn-rrkjus_psl.1.0.0.UPF
   I  126.9  I.rel-pbe-n-rrkjus_psl.0.2.2.UPF 
   Cs 132.9  Cs.rel-pbe-spn-rrkjus_psl.1.0.0.UPF

CELL_PARAMETERS bohr
 16.7540   0.0000   0.0000
  0.0000  16.2540   0.0000
  0.0000   0.0000  23.9537
ATOMIC_POSITIONS {crystal} 
  Cs       0.107476     0.153236     0.661388
  Cs       0.607476     0.653236     0.661388
  Cs       0.107476     0.846764     0.661388
  Cs       0.607476     0.346764     0.661388
  Sn       0.142790     0.500000     0.344076
  Sn       0.642790     0.000000     0.344076
  Sn       0.067623     0.500000     0.457925
  Sn       0.567623     0.000000     0.457925
   I       0.867194     0.697999     0.672584
   I       0.367194     0.197999     0.672584
   I       0.867194     0.302001     0.672584
   I       0.367194     0.802001     0.672584
   I       0.013906     0.369587     0.710764
   I       0.513906     0.869587     0.710764
   I       0.013906     0.630413     0.710764
   I       0.513906     0.130413     0.710764
   I       0.373732     0.612136     0.923106
   I       0.873732     0.112136     0.923106
   I       0.373732     0.387864     0.923106
   I       0.873732     0.887864     0.923106
K_POINTS {automatic} 
   3    3    2  0 0 0
