EA4     8.777  8.777 12.548 90.00 90.00 90.00 Sym.group:  131
1.0
    8.776771     0.000000     0.000000
    0.000000     8.776771     0.000000
    0.000000     0.000000    12.548374
  Cs  Sn   I
   4   4  12
Direct
    0.000000     0.500000     1.109232 
    0.000000     0.500000     0.390772 
    0.500000     0.000000     0.609228 
    0.500000     0.000000    -0.109232 
    0.499777     0.182912     0.250000 
    0.500223     0.817088     0.250000 
    0.182912     0.500223     0.750000 
    0.817088     0.499777     0.750000 
    0.999997     0.282527     0.894960 
    0.999925     0.717471     0.605035 
    0.000075     0.282529     0.605035 
    0.000003     0.717473     0.894960 
    0.282529     0.999925     0.394965 
    0.282527     0.000003     0.105040 
    0.717473     0.999997     0.105040 
    0.717471     0.000075     0.394965 
   -0.000003     0.806372     0.250005 
    0.000003     0.193628     0.250005 
    0.806372     0.000003     0.749995 
    0.193628    -0.000003     0.749995 
