&CONTROL
    title = 'perovskite', 
    calculation = 'vc-relax',
    restart_mode = 'from_scratch',
    verbosity = 'medium',
    prefix = 'CsSnI3',
    wf_collect = .false.,
    outdir = './',
    pseudo_dir = './',
    tprnfor = .true.,
    tstress = .true.,
    forc_conv_thr=1.d-4,
    max_seconds = 42500,
/



 &SYSTEM
nat = 20
ntyp = 3
    ibrav = 0,
    nat = 20, 
    ntyp = 3,
    ecutwfc= 80,
    ecutrho= 320,
    noncolin=.true.,
    lspinorb=.true.,
/
 &ELECTRONS
    conv_thr = 1.0d-7,
    diagonalization = 'david',
    mixing_beta = 0.6,
/
 &IONS
    ion_dynamics = 'bfgs',
/

 &CELL
    cell_dynamics = 'bfgs',
/
ATOMIC_SPECIES
   Sn 118.7  Sn.rel-pbe-dn-rrkjus_psl.1.0.0.UPF
   I  126.9  I.rel-pbe-n-rrkjus_psl.0.2.2.UPF 
   Cs 132.9  Cs.rel-pbe-spn-rrkjus_psl.1.0.0.UPF

CELL_PARAMETERS bohr
 17.4003   0.0000   0.0000
 -8.7001  15.0691   0.0000
  0.0000   0.0000  24.8777
ATOMIC_POSITIONS {crystal} 
  Cs       0.333333     0.666667     0.803867
  Cs       0.666667     0.333333     0.196133
  Cs       0.333333     0.666667     0.696133
  Cs       0.666667     0.333333     0.303867
  Sn       0.333333     0.666667     0.385944
  Sn       0.666667     0.333333     0.614056
  Sn       0.333333     0.666667     0.114056
  Sn       0.666667     0.333333     0.885944
   I       0.335059     0.071497     0.566695
   I       0.928503     0.263562     0.566695
   I       0.736438     0.664941     0.566695
   I       0.263562     0.928503     0.433305
   I       0.071497     0.335059     0.433305
   I       0.664941     0.736438     0.433305
   I       0.736438     0.664941     0.933305
   I       0.335059     0.071497     0.933305
   I       0.928503     0.263562     0.933305
   I       0.664941     0.736438     0.066695
   I       0.263562     0.928503     0.066695
   I       0.071497     0.335059     0.066695
K_POINTS {automatic} 
   4    4    2  0 0 0
