&CONTROL
    title = 'perovskite', 
    calculation = 'relax',
    restart_mode = 'from_scratch',
    verbosity = 'medium',
    prefix = 'CsSnI3',
    wf_collect = .false.,
    outdir = './',
    pseudo_dir = './',
    tprnfor = .true.,
    tstress = .true.,
    forc_conv_thr=1.d-2,
    dt=60.D0,
    max_seconds = 42500,
/


 &SYSTEM
nat = 20
ntyp = 3
    ibrav = 0,
    nat = 20,
    ntyp = 3,
    ecutwfc= 80,
    ecutrho= 400,
    noncolin=.true.,
    lspinorb=.true.,
    nbnd=200,
    occupations='smearing',
    smearing='marzari-vanderbilt',
    degauss=0.02,
/

 &ELECTRONS
    conv_thr = 1.0d-6,
    diagonalization = 'david',
    mixing_beta = 0.5,
/
 &IONS
    ion_dynamics = 'bfgs',
/

 &CELL
    cell_dynamics = 'bfgs',
/
ATOMIC_SPECIES
   Sn 118.7  Sn.rel-pbe-dn-rrkjus_psl.1.0.0.UPF
   I  126.9  I.rel-pbe-n-rrkjus_psl.1.0.0.UPF 
   Cs 132.9  Cs.rel-pbe-spn-rrkjus_psl.1.0.0.UPF

CELL_PARAMETERS bohr
 24.3138   0.0000   0.0000
  0.0000  23.8115   0.0000
  0.0000   0.0000  23.9543
ATOMIC_POSITIONS {crystal} 
  Cs       0.966394     0.180720     0.063374
  Cs       0.466394     0.680720     0.063374
  Cs       0.033606     0.180720     0.936626
  Cs       0.533606     0.680720     0.936626
  Sn       0.185556     0.536145     0.057676
  Sn       0.685556     0.036145     0.057676
  Sn       0.814444     0.536145     0.942324
  Sn       0.314444     0.036145     0.942324
   I       0.863559     0.239149     0.790638
   I       0.363559     0.739149     0.790638
   I       0.136441     0.239149     0.209362
   I       0.636441     0.739149     0.209362
   I       0.066429     0.579838     0.539664
   I       0.566429     0.079838     0.539664
   I       0.933571     0.579838     0.460336
   I       0.433571     0.079838     0.460336
   I       0.812971     0.743718     0.038693
   I       0.312971     0.243718     0.038693
   I       0.187029     0.743718     0.961307
   I       0.687029     0.243718     0.961307
K_POINTS {automatic} 
   2    2    2  0 0 0
