&CONTROL
    title = 'perovskite', 
    calculation = 'vc-relax',
    restart_mode = 'from_scratch',
    verbosity = 'medium',
    prefix = 'CsSnI3',
    wf_collect = .false.,
    outdir = './',
    pseudo_dir = './',
    tprnfor = .true.,
    tstress = .true.,
    forc_conv_thr=1.d-4,
    max_seconds = 42500,
/



 &SYSTEM
nat = 20
ntyp = 3
    ibrav = 0,
    nat = 20, 
    ntyp = 3,
    ecutwfc= 80,
    ecutrho= 320,
    noncolin=.true.,
    lspinorb=.true.,
/
 &ELECTRONS
    conv_thr = 1.0d-7,
    diagonalization = 'david',
    mixing_beta = 0.6,
/
 &IONS
    ion_dynamics = 'bfgs',
/

 &CELL
    cell_dynamics = 'bfgs',
/
ATOMIC_SPECIES
   Sn 118.7  Sn.rel-pbe-dn-rrkjus_psl.1.0.0.UPF
   I  126.9  I.rel-pbe-n-rrkjus_psl.0.2.2.UPF 
   Cs 132.9  Cs.rel-pbe-spn-rrkjus_psl.1.0.0.UPF

CELL_PARAMETERS bohr
 16.7543   0.0000   0.0000
  0.0000  16.2535   0.0000
  0.0000   0.0000  23.9541
ATOMIC_POSITIONS {crystal} 
  Cs       0.102939     0.353723     0.345532
  Cs       0.897061     0.646277     0.345532
  Cs       0.602939     0.146277     0.345532
  Cs       0.397061     0.853723     0.345532
  Sn       0.000000     0.000000     0.433509
  Sn       0.500000     0.500000     0.433509
  Sn       0.500000     0.000000     0.041779
  Sn       0.000000     0.500000     0.041779
   I       0.626942     0.068565     0.833362
   I       0.373058     0.931435     0.833362
   I       0.126942     0.431435     0.833362
   I       0.873058     0.568565     0.833362
   I       0.659372     0.994601     0.421850
   I       0.340628     0.005399     0.421850
   I       0.159372     0.505399     0.421850
   I       0.840628     0.494601     0.421850
   I       0.529994     0.166697     0.647181
   I       0.470006     0.833303     0.647181
   I       0.029994     0.333303     0.647181
   I       0.970006     0.666697     0.647181
K_POINTS {automatic} 
   3    3    2  0 0 0
