&DOS
   prefix = 'CsIbcc'
   fildos = 'dos.out'
   DeltaE = 0.02
/ 
