&CONTROL
    title = 'SnI2', 
    calculation = 'scf',
    restart_mode = 'from_scratch',
    verbosity = 'medium',
    prefix = 'SnI2',
    wf_collect = .true.,
    outdir = './',
    wfcdir = './',
    pseudo_dir = '/scratch/cmalosso/degironcoli/pseudo/pseudo-usp',
    tprnfor = .true.,
    tstress = .true.,
    forc_conv_thr=1.d-4,
/
 &SYSTEM
    ibrav = 1,
    A = 7.630706, 
    nat = 6, 
    ntyp = 2,
    ecutwfc= 90,
    ecutrho= 450.0
    lspinorb=.true.
    noncolin = .true.
/
 &ELECTRONS
    conv_thr = 1.0d-6,
    diagonalization = 'david',
    mixing_beta = 0.35,
/

ATOMIC_SPECIES
   Sn 118.7  Sn.rel-pbesol-dn-rrkjus_psl.1.0.0.UPF
   I  126.9  I.rel-pbesol-n-rrkjus_psl.1.0.0.UPF 

ATOMIC_POSITIONS {crystal}
Sn 0.000000 0.000000 0.000000 
Sn 0.500000 0.500000 0.500000 
I 0.298521 0.298521 0.000000 
I 0.701479 0.701479 0.000000 
I 0.798521 0.201479 0.500000 
I 0.201479 0.798521 0.500000 

K_POINTS {automatic}
6 6 6 1 1 1

