&DOS
   outdir='.',
   prefix = 'SnI2',
   fildos = 'fildos'
   Emin = -15
   DeltaE = 0.1
/ 
