&CONTROL
    title = 'perovskite', 
    calculation = 'vc-relax',
    restart_mode = 'from_scratch',
    verbosity = 'medium',
    prefix = 'CsSnI3',
    wf_collect = .false.,
    outdir = './',
    pseudo_dir = './',
    tprnfor = .true.,
    tstress = .true.,
    forc_conv_thr=1.d-4,
    max_seconds = 42500,
/



 &SYSTEM
nat = 20
ntyp = 3
    ibrav = 0,
    nat = 20, 
    ntyp = 3,
    ecutwfc= 80,
    ecutrho= 320,
    noncolin=.true.,
    lspinorb=.true.,
/
 &ELECTRONS
    conv_thr = 1.0d-7,
    diagonalization = 'david',
    mixing_beta = 0.6,
/
 &IONS
    ion_dynamics = 'bfgs',
/

 &CELL
    cell_dynamics = 'bfgs',
/
ATOMIC_SPECIES
   Sn 118.7  Sn.rel-pbe-dn-rrkjus_psl.1.0.0.UPF
   I  126.9  I.rel-pbe-n-rrkjus_psl.0.2.2.UPF 
   Cs 132.9  Cs.rel-pbe-spn-rrkjus_psl.1.0.0.UPF

CELL_PARAMETERS bohr
 16.5857   0.0000   0.0000
 -0.0000  16.5857   0.0000
 -0.0000  -0.0000  23.7130
ATOMIC_POSITIONS {crystal} 
  Cs       0.000000     0.000000     0.250000
  Cs       0.500000     0.500000     0.750000
  Cs       0.000000     0.000000     0.750000
  Cs       0.500000     0.500000     0.250000
  Sn       0.000000     0.000000     0.000000
  Sn       0.500000     0.500000     0.500000
  Sn       0.000000     0.000000     0.500000
  Sn       0.500000     0.500000     0.000000
   I       0.201264     0.201264     0.750000
   I       0.701264     0.701264     0.250000
   I       0.298736     0.298736     0.250000
   I       0.798736     0.798736     0.750000
   I       0.798736     0.201264     0.250000
   I       0.298736     0.701264     0.750000
   I       0.201264     0.798736     0.250000
   I       0.701264     0.298736     0.750000
   I       0.000000     0.500000     0.000000
   I       0.500000     0.000000     0.500000
   I       0.500000     0.000000     1.000000
   I       0.000000     0.500000     0.500000
K_POINTS {automatic} 
   3    3    2  0 0 0
