&CONTROL
    title = 'perovskite', 
    calculation = 'relax',
    restart_mode = 'from_scratch',
    verbosity = 'medium',
    prefix = 'CsSnI3',
    wf_collect = .false.,
    outdir = './',
    pseudo_dir = './',
    tprnfor = .true.,
    tstress = .true.,
    forc_conv_thr=1.d-2,
    dt=60.D0,
    max_seconds = 42500,
/


 &SYSTEM
nat = 20
ntyp = 3
    ibrav = 0,
    nat = 20,
    ntyp = 3,
    ecutwfc= 80,
    ecutrho= 400,
    noncolin=.true.,
    lspinorb=.true.,
    nbnd=200,
    occupations='smearing',
    smearing='marzari-vanderbilt',
    degauss=0.02,
/

 &ELECTRONS
    conv_thr = 1.0d-6,
    diagonalization = 'david',
    mixing_beta = 0.5,
/
 &IONS
    ion_dynamics = 'bfgs',
/

 &CELL
    cell_dynamics = 'bfgs',
/
ATOMIC_SPECIES
   Sn 118.7  Sn.rel-pbe-dn-rrkjus_psl.1.0.0.UPF
   I  126.9  I.rel-pbe-n-rrkjus_psl.1.0.0.UPF 
   Cs 132.9  Cs.rel-pbe-spn-rrkjus_psl.1.0.0.UPF

CELL_PARAMETERS bohr
 24.1450   0.0000   0.0000
  0.0000  24.1450   0.0000
  0.0000   0.0000  23.7885
ATOMIC_POSITIONS {crystal} 
  Cs       0.500000     0.500000     0.153667
  Cs       0.500000     0.500000     0.846333
  Cs       0.000000     0.000000     0.346333
  Cs       0.000000     0.000000     0.653667
  Sn       0.500000     0.500000     0.316981
  Sn       0.500000     0.500000     0.683019
  Sn       0.000000     0.000000     0.183019
  Sn       0.000000     0.000000     0.816981
   I       0.561601     0.561601     0.500000
   I       0.561601     0.438399     0.500000
   I       0.438399     0.561601     0.500000
   I       0.438399     0.438399     0.500000
   I       0.938399     0.938399     0.000000
   I       0.938399     0.061601     0.000000
   I       0.061601     0.938399     0.000000
   I       0.061601     0.061601     0.000000
   I       0.500000     0.000000     0.000000
   I       0.000000     0.500000     0.000000
   I       0.000000     0.500000     0.500000
   I       0.500000     0.000000     0.500000
K_POINTS {automatic} 
   2    2    2  0 0 0
