&CONTROL
    title = 'perovskite', 
    calculation = 'relax',
    restart_mode = 'from_scratch',
    verbosity = 'medium',
    prefix = 'CsSnI3',
    wf_collect = .false.,
    outdir = './',
    pseudo_dir = './',
    tprnfor = .true.,
    tstress = .true.,
    forc_conv_thr=1.d-2,
    dt=60.D0,
    max_seconds = 42500,
/


 &SYSTEM
nat = 20
ntyp = 3
    ibrav = 0,
    nat = 20,
    ntyp = 3,
    ecutwfc= 80,
    ecutrho= 400,
    noncolin=.true.,
    lspinorb=.true.,
    nbnd=200,
    occupations='smearing',
    smearing='marzari-vanderbilt',
    degauss=0.02,
/

 &ELECTRONS
    conv_thr = 1.0d-6,
    diagonalization = 'david',
    mixing_beta = 0.5,
/
 &IONS
    ion_dynamics = 'bfgs',
/

 &CELL
    cell_dynamics = 'bfgs',
/
ATOMIC_SPECIES
   Sn 118.7  Sn.rel-pbe-dn-rrkjus_psl.1.0.0.UPF
   I  126.9  I.rel-pbe-n-rrkjus_psl.1.0.0.UPF 
   Cs 132.9  Cs.rel-pbe-spn-rrkjus_psl.1.0.0.UPF

CELL_PARAMETERS bohr
 25.3309   0.0000   0.0000
-12.6655  21.9372   0.0000
  0.0000   0.0000  24.9569
ATOMIC_POSITIONS {crystal} 
  Cs       0.000000     0.000000     0.250000
  Cs       0.000000     0.000000     0.750000
  Cs       0.000000     0.000000     0.000000
  Cs       0.000000     0.000000     0.500000
  Sn       0.000000     0.000000     0.905725
  Sn       0.000000     0.000000     0.594275
  Sn       0.000000     0.000000     0.094275
  Sn       0.000000     0.000000     0.405725
   I       0.955445     0.628631     0.000000
   I       0.326814     0.955445     0.000000
   I       0.371369     0.326814     0.000000
   I       0.044555     0.371369     0.000000
   I       0.673186     0.044555     0.000000
   I       0.628631     0.673186     0.000000
   I       0.326814     0.371369     0.500000
   I       0.955445     0.326814     0.500000
   I       0.628631     0.955445     0.500000
   I       0.673186     0.628631     0.500000
   I       0.044555     0.673186     0.500000
   I       0.371369     0.044555     0.500000
K_POINTS {automatic} 
   3    3    2  0 0 0
