&CONTROL
    title = 'SnI2tetr', 
    calculation = 'vc-relax',
    restart_mode = 'from_scratch',
    verbosity = 'medium',
    prefix = 'SnI2tetr',
    wf_collect = .true.,
    outdir = './out',
    wfcdir = './out',
    pseudo_dir = '../../../pseudo/',
    tprnfor = .true.,
    tstress = .true.,
    max_seconds = 42500,
    forc_conv_thr=1.d-4,
/
 &SYSTEM
    ibrav = 0,
    nat = 6, 
    ntyp = 2,
    ecutwfc= 80,
    ecutrho=320,

/
 &ELECTRONS
    conv_thr = 1.0d-6,
    diagonalization = 'david',
    mixing_beta = 0.5,
/
 &IONS
    ion_dynamics = 'bfgs',
/

 &CELL
    cell_dynamics = 'bfgs',
/
 CELL_PARAMETERS {angstrom}
7.630706 0.000000 0.000000
0.000000 7.630706 0.000000
0.000000 0.000000 4.695760

 ATOMIC_SPECIES
   Sn 118.7  Sn.pbe-dn-kjpaw_psl.1.0.0.UPF
   I  126.9  I.pbe-n-kjpaw_psl.1.0.0.UPF

 ATOMIC_POSITIONS {crystal}
Sn 0.000000 0.000000 0.000000 
Sn 0.500000 0.500000 0.500000 
I 0.298521 0.298521 0.000000 
I 0.701479 0.701479 0.000000 
I 0.798521 0.201479 0.500000 
I 0.201479 0.798521 0.500000 

K_POINTS {automatic}
2 2 2 0 0 0
