&CONTROL
    title = 'CsIhexagonal', 
    calculation = 'vc-relax',
    restart_mode = 'from_scratch',
    verbosity = 'medium',
    prefix = 'CsIhex',
    wf_collect = .true.,
    outdir = './out',
    wfcdir = './out',
    pseudo_dir = '../../../pseudo/',
    tprnfor = .true.,
    tstress = .true.,
    max_seconds = 42500,
    forc_conv_thr=1.d-4,
/
 &SYSTEM
    ibrav = 0,
    nat = 8, 
    ntyp = 2,
    ecutwfc= 70,
    ecutrho=280,

/
 &ELECTRONS
    conv_thr = 1.0d-6,
    diagonalization = 'david',
    mixing_beta = 0.5,
/
 &IONS
    ion_dynamics = 'bfgs',
/

 &CELL
    cell_dynamics = 'bfgs',
/
 CELL_PARAMETERS {angstrom}
7.859178 0.000000 0.000000
0.000000 7.859178 0.000000
0.000000 0.000000 7.859178

 ATOMIC_SPECIES
   Cs 132.9  Cs.pbe-spn-kjpaw_psl.1.0.0.UPF
   I  126.9  I.pbe-n-kjpaw_psl.1.0.0.UPF

 ATOMIC_POSITIONS {crystal}
Cs 0.000000 0.000000 0.000000 
Cs 0.000000 0.500000 0.500000 
Cs 0.500000 0.000000 0.500000 
Cs 0.500000 0.500000 0.000000 
I 0.500000 0.000000 0.000000 
I 0.500000 0.500000 0.500000 
I 0.000000 0.000000 0.500000 
I 0.000000 0.500000 0.000000 

K_POINTS {automatic}
2 2 2 0 0 0
