&CONTROL
    title = 'CsIfcc', 
    calculation = 'scf',
    restart_mode = 'from_scratch',
    verbosity = 'medium',
    prefix = 'CsIfcc',
    wf_collect = .true.,
    outdir = './',
    wfcdir = './',
    pseudo_dir = '/scratch/gtenti/degironcoli/pseudo',
    tprnfor = .true.,
    tstress = .true.,
    max_seconds = 42500,
    forc_conv_thr=1.d-4,
/
 &SYSTEM
    ibrav = 1,
    A = 7.859178 
    nat = 8, 
    ntyp = 2,
    ecutwfc= 70,
    ecutrho= 420.0
/
 &ELECTRONS
    conv_thr = 1.0d-6,
    diagonalization = 'david',
    mixing_beta = 0.6,
/

ATOMIC_SPECIES
   Cs 132.9  Cs.pbesol-spn-rrkjus_psl.1.0.0.UPF
   I  126.9  I.pbesol-n-kjpaw_psl.1.0.0.UPF

ATOMIC_POSITIONS {crystal}
Cs 0.000000 0.000000 0.000000 
Cs 0.000000 0.500000 0.500000 
Cs 0.500000 0.000000 0.500000 
Cs 0.500000 0.500000 0.000000 
I 0.500000 0.000000 0.000000 
I 0.500000 0.500000 0.500000 
I 0.000000 0.000000 0.500000 
I 0.000000 0.500000 0.000000 

K_POINTS {automatic}
4 4 4 1 1 1
